************************************************************************
file with basedata            : j30_17.bas
initial value random generator: 79602564
************************************************************************
projects                      :  1
jobs (incl. supersource/sink ):  32
horizon                       :  141
RESOURCES
  - renewable                 :  4   R
  - nonrenewable              :  0   N
  - doubly constrained        :  0   D
************************************************************************
PROJECT INFORMATION:
pronr.  #jobs rel.date duedate tardcost  MPM-Time
    1     30      0       43        0       43
************************************************************************
PRECEDENCE RELATIONS:
jobnr.    #modes  #successors   successors
   0        1          3           1   2   3
   1        1          2          22  23
   2        1          3           4   5  16
   3        1          2           6  19
   4        1          3           9  21  27
   5        1          1          17
   6        1          3           7   8  11
   7        1          3          13  20  26
   8        1          2          10  15
   9        1          1          15
  10        1          1          16
  11        1          3          12  14  15
  12        1          1          29
  13        1          1          18
  14        1          1          25
  15        1          1          24
  16        1          1          23
  17        1          1          20
  18        1          1          24
  19        1          2          24  26
  20        1          1          21
  21        1          2          28  29
  22        1          1          30
  23        1          1          26
  24        1          1          25
  25        1          1          29
  26        1          1          27
  27        1          1          30
  28        1          1          31
  29        1          1          31
  30        1          1          31
  31        1          0        
************************************************************************
REQUESTS/DURATIONS:
jobnr. mode duration  R 1  R 2  R 3  R 4  E(W 1)
------------------------------------------------------------------------
  0      1     0       0    0    0    0     0
  1      1     1       0    0    0    5     5
  2      1     1       0    3    0    0     3
  3      1     1       8    0    0    0     8
  4      1     7       0    0    2    0    14
  5      1     6       0    0    0    3    18
  6      1     4       1    0    0    0     8
  7      1     5       0    0   10    0    50
  8      1     8       0    0    3    0    24
  9      1     7       0    0    0    1    14
 10      1     8       9    0    0    0    72
 11      1     1       7    0    0    0     7
 12      1     2       0    3    0    0     6
 13      1     3       0    0    0    6    18
 14      1    10       0    7    0    0    70
 15      1    10       3    0    0    0    30
 16      1     2       0    0    3    0     6
 17      1    10       0    0    4    0    40
 18      1     1       0    0    0    3     3
 19      1     1       0    0    7    0     7
 20      1     7       0    2    0    0    14
 21      1     9       0    0    0   10    90
 22      1     9       0    0    7    0    63
 23      1     4       0    4    0    0    16
 24      1     4       0    3    0    0    12
 25      1     1       0    0    4    0     4
 26      1     1       9    0    0    0     9
 27      1     8       0    0    0    9    72
 28      1     1       0    0    0    1     2
 29      1     2       0    8    0    0    16
 30      1     7       0    4    0    0    28
 31      1     0       0    0    0    0     0
************************************************************************
RESOURCEAVAILABILITIES:
  R 1
   43
************************************************************************
RESOURCE LIMITS:
jobnr.  l(R 1)  u(R 1)
------------------------------------------------------------------------
  0        0       0
  1        3       5
  2        2       3
  3        4       8
  4        1       2
  5        2       3
  6        1       2
  7        5      10
  8        2       3
  9        1       2
 10        5       9
 11        4       7
 12        2       3
 13        3       6
 14        4       7
 15        2       3
 16        2       3
 17        2       4
 18        2       3
 19        4       7
 20        1       2
 21        5      10
 22        4       7
 23        2       4
 24        2       3
 25        2       4
 26        5       9
 27        5       9
 28        1       2
 29        4       8
 30        2       4
 31        0       0
************************************************************************
SCENARIOS:
------------------------------------------------------------------------
RESOURCE k = 1
s = 1: (0, 7, 3, 11, 20, 15, 6, 40, 31, 14, 77, 6, 10, 22, 59, 46, 5, 36, 2, 5, 10, 105, 61, 11, 8, 4, 13, 90, 2, 9, 18, 0)
s = 2: (0, 7, 2, 7, 16, 13, 10, 39, 37, 12, 56, 6, 12, 22, 80, 27, 7, 32, 4, 6, 13, 130, 47, 15, 11, 6, 8, 90, 2, 23, 26, 0)
s = 3: (0, 6, 3, 6, 20, 29, 7, 40, 17, 16, 80, 11, 8, 11, 64, 33, 8, 54, 4, 5, 14, 97, 77, 11, 8, 5, 10, 104, 2, 16, 26, 0)
s = 4: (0, 5, 3, 8, 11, 13, 9, 64, 33, 11, 107, 7, 8, 24, 70, 19, 4, 25, 3, 8, 17, 59, 65, 15, 16, 5, 7, 61, 2, 18, 31, 0)
s = 5: (0, 6, 6, 8, 11, 26, 8, 43, 31, 14, 74, 7, 5, 26, 74, 38, 8, 25, 3, 9, 8, 116, 72, 15, 13, 5, 11, 39, 4, 10, 40, 0)
s = 6: (0, 3, 3, 8, 13, 25, 6, 42, 19, 12, 52, 9, 5, 18, 48, 18, 6, 34, 4, 9, 13, 115, 87, 18, 14, 5, 8, 100, 2, 18, 17, 0)
s = 7: (0, 8, 3, 5, 13, 20, 9, 31, 37, 11, 82, 6, 4, 18, 82, 42, 4, 65, 4, 9, 15, 58, 70, 14, 13, 5, 12, 92, 2, 28, 41, 0)
s = 8: (0, 6, 4, 6, 13, 20, 10, 59, 20, 11, 38, 8, 6, 21, 114, 28, 7, 39, 2, 5, 17, 60, 45, 11, 9, 6, 15, 86, 3, 10, 18, 0)
s = 9: (0, 6, 4, 6, 10, 16, 8, 46, 26, 10, 68, 10, 5, 17, 51, 54, 7, 41, 3, 5, 10, 99, 59, 13, 9, 5, 17, 74, 2, 15, 28, 0)
s = 10: (0, 6, 2, 7, 14, 19, 8, 43, 17, 10, 69, 6, 8, 25, 59, 54, 6, 26, 3, 10, 15, 116, 43, 21, 12, 3, 11, 44, 3, 21, 31, 0)
s = 11: (0, 5, 4, 6, 14, 10, 8, 64, 18, 20, 53, 8, 9, 26, 72, 30, 6, 50, 3, 8, 12, 89, 37, 12, 16, 4, 10, 58, 2, 28, 26, 0)
s = 12: (0, 7, 3, 7, 14, 24, 9, 58, 35, 12, 68, 7, 8, 15, 68, 43, 9, 45, 3, 6, 14, 73, 41, 25, 14, 4, 7, 88, 4, 11, 22, 0)
s = 13: (0, 5, 4, 12, 21, 19, 7, 35, 25, 20, 82, 8, 5, 14, 93, 46, 4, 59, 3, 5, 15, 53, 45, 19, 12, 7, 12, 57, 2, 10, 47, 0)
s = 14: (0, 7, 4, 5, 11, 10, 9, 49, 24, 18, 95, 7, 4, 12, 63, 44, 10, 36, 4, 7, 12, 144, 45, 21, 11, 5, 9, 106, 3, 24, 27, 0)
s = 15: (0, 4, 3, 5, 16, 19, 13, 41, 22, 12, 61, 10, 4, 11, 60, 41, 6, 30, 3, 10, 13, 77, 37, 14, 13, 3, 8, 47, 3, 11, 18, 0)
s = 16: (0, 8, 4, 5, 25, 17, 11, 60, 39, 14, 60, 10, 5, 19, 75, 34, 6, 32, 3, 6, 18, 85, 85, 15, 17, 5, 12, 68, 2, 11, 43, 0)
s = 17: (0, 5, 4, 5, 16, 16, 13, 66, 25, 10, 41, 5, 6, 15, 81, 25, 6, 34, 3, 8, 9, 74, 49, 15, 13, 4, 6, 53, 2, 19, 45, 0)
s = 18: (0, 5, 5, 12, 14, 18, 10, 32, 23, 10, 64, 7, 8, 22, 70, 23, 6, 32, 5, 8, 10, 70, 100, 16, 10, 7, 11, 83, 2, 12, 49, 0)
s = 19: (0, 5, 6, 10, 14, 17, 8, 65, 20, 18, 64, 6, 6, 24, 47, 25, 8, 27, 5, 8, 18, 91, 74, 13, 16, 6, 8, 63, 2, 15, 36, 0)
s = 20: (0, 7, 4, 7, 14, 20, 8, 55, 29, 13, 62, 10, 7, 36, 77, 25, 4, 45, 3, 6, 15, 107, 44, 21, 15, 4, 13, 46, 2, 25, 31, 0)
s = 21: (0, 4, 5, 7, 13, 12, 6, 37, 28, 15, 47, 7, 4, 15, 57, 25, 4, 42, 3, 8, 13, 88, 53, 21, 10, 5, 9, 55, 3, 12, 18, 0)
s = 22: (0, 9, 4, 6, 10, 31, 12, 34, 20, 14, 75, 10, 11, 16, 49, 25, 5, 59, 3, 7, 10, 80, 62, 16, 12, 4, 10, 87, 4, 15, 34, 0)
s = 23: (0, 10, 5, 9, 13, 12, 6, 64, 23, 8, 42, 6, 6, 13, 49, 20, 6, 55, 2, 9, 22, 110, 57, 15, 18, 5, 12, 80, 2, 16, 25, 0)
s = 24: (0, 5, 5, 9, 19, 20, 8, 30, 22, 24, 46, 7, 8, 27, 66, 40, 6, 29, 4, 10, 15, 91, 76, 21, 14, 4, 9, 84, 2, 12, 19, 0)
s = 25: (0, 7, 3, 7, 14, 15, 13, 48, 30, 13, 88, 7, 6, 15, 64, 24, 9, 30, 4, 6, 11, 76, 69, 9, 17, 4, 7, 60, 2, 12, 41, 0)
s = 26: (0, 7, 3, 6, 19, 12, 11, 62, 24, 8, 114, 6, 8, 11, 74, 31, 6, 64, 3, 6, 17, 148, 90, 16, 11, 3, 8, 66, 3, 24, 29, 0)
s = 27: (0, 7, 3, 8, 14, 26, 7, 60, 42, 9, 91, 8, 6, 17, 45, 21, 8, 52, 4, 6, 15, 135, 43, 13, 8, 5, 9, 72, 2, 24, 18, 0)
s = 28: (0, 5, 3, 9, 17, 16, 8, 44, 28, 21, 55, 7, 5, 20, 84, 38, 5, 34, 4, 8, 12, 70, 72, 18, 10, 4, 9, 57, 3, 14, 30, 0)
s = 29: (0, 8, 3, 8, 15, 28, 9, 52, 29, 18, 101, 7, 6, 18, 61, 41, 8, 37, 4, 6, 15, 75, 64, 13, 12, 3, 10, 66, 3, 24, 31, 0)
s = 30: (0, 8, 2, 11, 24, 14, 8, 66, 35, 13, 65, 8, 6, 23, 76, 28, 6, 50, 3, 7, 15, 152, 62, 17, 11, 4, 7, 55, 2, 14, 32, 0)
s = 31: (0, 4, 4, 8, 18, 23, 13, 70, 23, 16, 77, 8, 7, 11, 50, 30, 6, 40, 4, 7, 12, 87, 55, 16, 14, 3, 15, 90, 2, 30, 28, 0)
s = 32: (0, 4, 3, 7, 9, 15, 6, 54, 22, 8, 49, 7, 6, 25, 77, 34, 7, 52, 4, 5, 16, 105, 56, 17, 12, 4, 8, 63, 3, 14, 25, 0)
s = 33: (0, 5, 4, 8, 22, 16, 7, 56, 43, 9, 60, 8, 9, 21, 75, 24, 5, 23, 4, 9, 8, 76, 107, 18, 15, 4, 7, 64, 2, 17, 22, 0)
s = 34: (0, 7, 4, 11, 10, 12, 9, 37, 19, 15, 101, 9, 7, 12, 56, 42, 5, 54, 2, 8, 18, 98, 53, 17, 8, 5, 11, 55, 3, 22, 19, 0)
s = 35: (0, 5, 5, 5, 14, 19, 9, 66, 32, 25, 74, 5, 8, 14, 56, 35, 7, 41, 3, 8, 20, 80, 61, 17, 15, 5, 7, 47, 2, 18, 43, 0)
s = 36: (0, 8, 4, 8, 25, 12, 10, 58, 23, 20, 54, 7, 8, 27, 80, 29, 8, 41, 4, 8, 10, 57, 56, 21, 17, 7, 6, 63, 2, 16, 22, 0)
s = 37: (0, 4, 5, 7, 12, 20, 6, 47, 30, 16, 60, 5, 6, 11, 91, 36, 4, 37, 3, 12, 16, 126, 51, 24, 21, 3, 8, 44, 4, 18, 29, 0)
s = 38: (0, 5, 6, 9, 10, 25, 10, 98, 18, 10, 61, 6, 6, 18, 60, 19, 6, 38, 3, 8, 13, 108, 55, 13, 14, 3, 5, 62, 3, 17, 18, 0)
s = 39: (0, 5, 5, 14, 9, 19, 8, 53, 15, 19, 71, 6, 5, 29, 43, 39, 5, 38, 3, 11, 13, 78, 47, 17, 13, 6, 9, 87, 2, 23, 28, 0)
s = 40: (0, 5, 3, 8, 10, 22, 8, 47, 41, 16, 110, 6, 4, 11, 61, 44, 5, 43, 4, 6, 10, 65, 74, 20, 12, 5, 10, 41, 4, 18, 18, 0)
s = 41: (0, 4, 4, 9, 15, 14, 7, 50, 19, 14, 58, 7, 8, 24, 71, 40, 5, 46, 3, 7, 20, 67, 37, 14, 9, 7, 10, 48, 3, 20, 17, 0)
s = 42: (0, 5, 4, 13, 13, 25, 13, 48, 22, 22, 86, 5, 4, 10, 76, 25, 5, 25, 4, 5, 16, 87, 45, 22, 9, 5, 11, 63, 2, 23, 27, 0)
s = 43: (0, 7, 5, 7, 19, 25, 6, 43, 20, 12, 74, 7, 6, 13, 51, 37, 10, 38, 3, 6, 13, 84, 77, 29, 10, 5, 11, 62, 2, 25, 24, 0)
s = 44: (0, 4, 5, 7, 11, 18, 14, 54, 14, 12, 123, 10, 8, 17, 66, 24, 7, 45, 2, 11, 17, 117, 60, 12, 23, 6, 11, 43, 3, 18, 26, 0)
s = 45: (0, 3, 3, 9, 20, 21, 6, 49, 15, 14, 84, 9, 6, 16, 74, 29, 8, 40, 4, 6, 19, 107, 66, 16, 13, 4, 8, 93, 3, 14, 26, 0)
s = 46: (0, 5, 4, 9, 14, 25, 5, 81, 44, 22, 39, 5, 4, 31, 78, 23, 7, 29, 3, 12, 15, 128, 69, 11, 13, 4, 8, 56, 2, 16, 22, 0)
s = 47: (0, 3, 2, 11, 12, 14, 8, 35, 23, 11, 65, 6, 4, 16, 70, 23, 6, 57, 3, 8, 20, 89, 85, 15, 11, 6, 8, 69, 3, 16, 22, 0)
s = 48: (0, 6, 3, 11, 11, 11, 7, 51, 33, 11, 76, 8, 9, 25, 72, 42, 8, 40, 4, 10, 20, 115, 45, 23, 11, 4, 9, 107, 2, 13, 36, 0)
s = 49: (0, 3, 2, 14, 14, 15, 13, 33, 22, 23, 84, 7, 4, 12, 72, 30, 7, 28, 3, 7, 12, 66, 40, 16, 23, 5, 9, 48, 2, 23, 18, 0)
s = 50: (0, 6, 4, 6, 10, 33, 6, 69, 33, 10, 112, 6, 4, 15, 61, 30, 5, 25, 4, 8, 17, 88, 55, 12, 19, 3, 11, 51, 4, 15, 26, 0)
s = 51: (0, 5, 3, 8, 11, 16, 9, 49, 19, 16, 81, 8, 6, 24, 48, 32, 7, 44, 3, 5, 16, 121, 49, 15, 10, 5, 9, 90, 3, 16, 22, 0)
s = 52: (0, 6, 4, 13, 9, 21, 7, 40, 29, 14, 47, 4, 8, 16, 60, 18, 7, 61, 2, 12, 20, 71, 71, 19, 11, 5, 7, 72, 3, 15, 19, 0)
s = 53: (0, 5, 3, 6, 20, 17, 11, 35, 22, 9, 103, 7, 5, 18, 122, 43, 6, 68, 5, 5, 16, 90, 78, 11, 9, 3, 8, 46, 3, 20, 41, 0)
s = 54: (0, 4, 4, 11, 15, 25, 12, 37, 16, 8, 71, 7, 6, 16, 97, 37, 5, 44, 2, 10, 11, 88, 64, 18, 10, 5, 10, 66, 2, 12, 22, 0)
s = 55: (0, 7, 3, 9, 8, 17, 10, 32, 18, 18, 52, 9, 9, 23, 48, 21, 8, 40, 3, 10, 14, 72, 79, 20, 14, 5, 16, 82, 3, 12, 21, 0)
s = 56: (0, 9, 3, 7, 16, 21, 11, 48, 14, 11, 69, 6, 5, 19, 45, 37, 5, 27, 5, 6, 12, 115, 53, 15, 12, 4, 11, 88, 2, 16, 35, 0)
s = 57: (0, 5, 3, 8, 17, 19, 7, 44, 24, 15, 83, 6, 10, 15, 78, 24, 9, 29, 4, 8, 12, 66, 55, 20, 9, 4, 9, 103, 3, 16, 37, 0)
s = 58: (0, 6, 3, 8, 11, 15, 12, 30, 13, 9, 73, 5, 7, 15, 66, 19, 6, 51, 4, 9, 16, 88, 33, 15, 10, 4, 8, 104, 2, 17, 28, 0)
s = 59: (0, 5, 5, 8, 19, 27, 9, 63, 24, 24, 47, 6, 6, 25, 109, 23, 5, 38, 2, 5, 16, 124, 55, 16, 8, 4, 8, 59, 3, 28, 29, 0)
s = 60: (0, 9, 4, 9, 16, 23, 5, 35, 30, 13, 70, 10, 6, 16, 48, 28, 8, 55, 4, 8, 22, 57, 50, 15, 11, 4, 8, 98, 3, 21, 18, 0)
s = 61: (0, 4, 5, 6, 14, 30, 6, 40, 34, 16, 61, 6, 10, 24, 89, 31, 4, 57, 4, 7, 17, 152, 84, 25, 11, 4, 10, 103, 2, 19, 36, 0)
s = 62: (0, 8, 5, 11, 17, 16, 6, 37, 15, 9, 40, 6, 7, 29, 116, 27, 7, 36, 3, 10, 9, 100, 74, 13, 13, 4, 14, 53, 2, 23, 18, 0)
s = 63: (0, 5, 5, 8, 19, 18, 10, 50, 22, 20, 52, 5, 5, 12, 59, 23, 5, 39, 3, 6, 15, 76, 57, 20, 11, 5, 8, 49, 2, 19, 31, 0)
s = 64: (0, 7, 3, 6, 17, 12, 6, 64, 28, 21, 113, 8, 9, 10, 64, 33, 5, 48, 3, 6, 15, 88, 35, 15, 12, 4, 9, 110, 3, 26, 30, 0)
s = 65: (0, 6, 5, 5, 21, 13, 9, 57, 19, 15, 71, 9, 6, 17, 80, 41, 8, 36, 3, 9, 18, 124, 43, 13, 8, 5, 8, 44, 2, 18, 19, 0)
s = 66: (0, 6, 3, 6, 12, 22, 7, 50, 16, 10, 63, 5, 7, 17, 50, 24, 7, 63, 4, 5, 9, 62, 88, 23, 19, 5, 7, 47, 2, 18, 24, 0)
s = 67: (0, 5, 3, 7, 9, 22, 15, 72, 19, 12, 56, 7, 7, 23, 93, 32, 8, 48, 5, 4, 17, 62, 72, 26, 12, 3, 8, 70, 4, 24, 31, 0)
s = 68: (0, 4, 2, 7, 12, 14, 14, 48, 18, 24, 64, 8, 5, 14, 55, 21, 5, 41, 4, 5, 18, 61, 80, 9, 8, 6, 5, 61, 3, 13, 42, 0)
s = 69: (0, 5, 3, 8, 18, 16, 10, 31, 16, 18, 59, 8, 5, 19, 78, 32, 10, 38, 4, 8, 14, 158, 65, 16, 12, 4, 7, 58, 2, 31, 27, 0)
s = 70: (0, 6, 4, 6, 15, 13, 8, 47, 13, 9, 67, 8, 4, 21, 73, 30, 7, 22, 3, 10, 13, 157, 59, 10, 17, 4, 8, 92, 3, 14, 20, 0)
s = 71: (0, 6, 5, 9, 25, 17, 7, 58, 16, 15, 74, 9, 5, 22, 78, 30, 6, 37, 5, 11, 10, 59, 50, 14, 9, 4, 6, 55, 2, 23, 18, 0)
s = 72: (0, 3, 4, 7, 10, 24, 6, 32, 37, 15, 58, 5, 6, 27, 104, 37, 5, 34, 3, 11, 9, 109, 42, 22, 24, 4, 12, 96, 2, 18, 25, 0)
s = 73: (0, 5, 3, 11, 12, 16, 11, 64, 18, 17, 76, 5, 6, 12, 83, 34, 8, 39, 4, 8, 12, 76, 41, 21, 14, 4, 10, 74, 2, 14, 27, 0)
s = 74: (0, 6, 2, 10, 17, 16, 11, 46, 32, 10, 109, 14, 7, 21, 85, 22, 6, 64, 4, 7, 19, 100, 47, 18, 13, 4, 9, 49, 3, 13, 29, 0)
s = 75: (0, 5, 5, 17, 12, 38, 5, 44, 16, 11, 85, 8, 7, 15, 60, 47, 4, 54, 3, 5, 12, 62, 42, 12, 11, 4, 11, 92, 3, 15, 39, 0)
s = 76: (0, 6, 3, 5, 18, 25, 14, 47, 14, 10, 56, 5, 5, 20, 79, 32, 8, 54, 2, 7, 16, 137, 81, 23, 11, 3, 15, 94, 2, 15, 41, 0)
s = 77: (0, 7, 4, 10, 11, 19, 13, 45, 20, 14, 70, 6, 7, 12, 65, 21, 5, 49, 2, 5, 13, 65, 83, 13, 13, 3, 10, 105, 4, 13, 29, 0)
s = 78: (0, 6, 3, 9, 10, 15, 7, 38, 25, 10, 74, 5, 5, 21, 94, 31, 6, 42, 4, 7, 16, 112, 48, 11, 10, 5, 10, 58, 2, 16, 28, 0)
s = 79: (0, 7, 3, 7, 28, 14, 8, 46, 34, 17, 79, 9, 8, 13, 86, 21, 7, 60, 2, 6, 19, 128, 62, 24, 9, 4, 6, 44, 2, 13, 21, 0)
s = 80: (0, 4, 5, 11, 13, 12, 5, 36, 32, 10, 82, 6, 8, 19, 68, 36, 5, 45, 2, 6, 8, 132, 75, 10, 10, 4, 11, 74, 2, 13, 24, 0)
s = 81: (0, 4, 4, 8, 12, 17, 9, 66, 20, 18, 60, 8, 5, 22, 50, 30, 5, 47, 6, 8, 17, 89, 52, 24, 12, 6, 6, 39, 3, 17, 45, 0)
s = 82: (0, 4, 4, 9, 19, 18, 13, 41, 25, 10, 68, 7, 6, 18, 95, 19, 7, 33, 3, 6, 20, 61, 74, 18, 7, 5, 10, 65, 2, 16, 19, 0)
s = 83: (0, 5, 5, 10, 19, 17, 10, 39, 25, 11, 110, 7, 4, 16, 97, 49, 6, 33, 5, 7, 9, 79, 40, 16, 10, 3, 8, 107, 3, 14, 16, 0)
s = 84: (0, 7, 4, 7, 21, 18, 9, 60, 20, 8, 40, 7, 6, 12, 59, 33, 11, 34, 5, 8, 12, 93, 57, 12, 12, 5, 8, 52, 2, 16, 15, 0)
s = 85: (0, 6, 4, 8, 10, 17, 6, 88, 20, 15, 80, 4, 7, 20, 113, 24, 4, 40, 3, 6, 12, 89, 59, 19, 13, 3, 14, 53, 4, 18, 25, 0)
s = 86: (0, 6, 4, 12, 17, 21, 7, 64, 17, 21, 44, 8, 4, 22, 53, 21, 7, 42, 3, 5, 23, 120, 59, 16, 11, 6, 11, 106, 3, 16, 25, 0)
s = 87: (0, 6, 3, 11, 11, 12, 12, 44, 29, 10, 62, 7, 5, 28, 88, 39, 5, 29, 5, 6, 18, 96, 55, 11, 10, 6, 11, 77, 2, 14, 46, 0)
s = 88: (0, 4, 2, 11, 12, 22, 8, 71, 31, 11, 58, 7, 7, 17, 88, 24, 7, 53, 3, 6, 19, 85, 66, 11, 8, 3, 14, 56, 3, 12, 17, 0)
s = 89: (0, 4, 3, 10, 15, 21, 7, 46, 21, 8, 62, 9, 6, 25, 99, 27, 5, 72, 3, 6, 18, 54, 45, 12, 9, 4, 13, 73, 2, 22, 25, 0)
s = 90: (0, 8, 4, 9, 22, 27, 6, 63, 36, 13, 102, 7, 8, 19, 86, 20, 8, 56, 4, 9, 17, 69, 59, 20, 20, 4, 9, 51, 2, 22, 28, 0)
s = 91: (0, 6, 6, 7, 15, 24, 8, 45, 16, 14, 54, 6, 5, 27, 66, 29, 9, 68, 4, 7, 18, 73, 70, 18, 8, 5, 5, 56, 3, 21, 24, 0)
s = 92: (0, 4, 3, 11, 9, 18, 5, 61, 20, 18, 91, 10, 5, 16, 83, 33, 7, 25, 3, 12, 17, 63, 79, 12, 16, 4, 10, 82, 3, 14, 23, 0)
s = 93: (0, 6, 3, 7, 13, 17, 7, 74, 37, 24, 68, 6, 4, 25, 73, 31, 7, 36, 3, 7, 10, 51, 70, 10, 11, 6, 11, 57, 2, 14, 40, 0)
s = 94: (0, 3, 4, 10, 8, 18, 12, 63, 21, 11, 60, 9, 8, 20, 82, 32, 10, 40, 5, 6, 14, 100, 61, 12, 13, 3, 9, 76, 3, 21, 29, 0)
s = 95: (0, 10, 2, 6, 12, 14, 9, 50, 21, 21, 55, 6, 6, 26, 67, 26, 7, 52, 3, 6, 9, 79, 59, 19, 11, 7, 5, 60, 3, 21, 31, 0)
s = 96: (0, 6, 4, 7, 16, 12, 7, 59, 22, 15, 101, 5, 4, 21, 50, 40, 5, 51, 2, 6, 9, 131, 97, 13, 16, 5, 12, 58, 2, 14, 26, 0)
s = 97: (0, 4, 3, 14, 22, 13, 7, 33, 24, 13, 74, 5, 8, 10, 63, 25, 6, 39, 3, 7, 22, 84, 56, 16, 13, 4, 7, 95, 2, 16, 43, 0)
s = 98: (0, 7, 3, 10, 15, 28, 6, 45, 30, 14, 56, 6, 7, 12, 73, 24, 7, 36, 3, 6, 17, 90, 46, 16, 14, 5, 7, 43, 3, 17, 26, 0)
s = 99: (0, 6, 3, 7, 20, 10, 8, 34, 17, 13, 44, 8, 5, 13, 63, 48, 7, 67, 3, 5, 11, 95, 74, 13, 19, 3, 6, 83, 2, 18, 20, 0)
s = 100: (0, 4, 3, 7, 13, 14, 6, 57, 17, 15, 71, 10, 7, 14, 68, 34, 6, 52, 2, 7, 23, 81, 66, 20, 19, 4, 9, 134, 2, 11, 40, 0)
s = 101: (0, 7, 3, 9, 12, 13, 11, 48, 23, 22, 55, 13, 8, 15, 51, 32, 7, 46, 3, 8, 14, 62, 64, 27, 10, 3, 8, 74, 2, 17, 23, 0)
s = 102: (0, 5, 4, 6, 9, 26, 11, 31, 19, 14, 66, 7, 7, 14, 74, 39, 8, 61, 4, 7, 10, 92, 72, 14, 11, 3, 11, 98, 2, 21, 32, 0)
s = 103: (0, 8, 4, 6, 15, 19, 8, 54, 21, 11, 49, 6, 4, 19, 66, 40, 8, 34, 4, 9, 15, 93, 48, 26, 20, 4, 7, 76, 3, 23, 38, 0)
s = 104: (0, 3, 5, 5, 12, 15, 6, 57, 16, 16, 46, 11, 6, 11, 70, 33, 8, 38, 4, 6, 14, 116, 57, 17, 12, 6, 8, 61, 2, 14, 41, 0)
s = 105: (0, 5, 3, 7, 18, 21, 9, 53, 18, 24, 62, 11, 4, 15, 65, 39, 8, 36, 5, 8, 13, 57, 80, 17, 20, 5, 10, 76, 4, 18, 25, 0)
s = 106: (0, 6, 3, 11, 24, 14, 5, 42, 20, 23, 64, 9, 7, 20, 115, 50, 5, 44, 3, 5, 19, 54, 60, 14, 13, 3, 10, 87, 2, 28, 20, 0)
s = 107: (0, 5, 3, 12, 16, 15, 10, 30, 42, 17, 82, 6, 5, 16, 55, 30, 10, 38, 3, 12, 9, 142, 74, 12, 7, 3, 11, 95, 3, 13, 47, 0)
s = 108: (0, 7, 4, 9, 13, 17, 11, 46, 34, 8, 54, 6, 5, 25, 67, 44, 6, 37, 4, 8, 10, 74, 93, 10, 15, 3, 11, 118, 2, 17, 18, 0)
s = 109: (0, 5, 3, 7, 15, 13, 6, 57, 34, 18, 66, 6, 6, 17, 73, 20, 5, 41, 3, 7, 16, 162, 55, 20, 9, 5, 8, 66, 2, 11, 19, 0)
s = 110: (0, 7, 4, 6, 20, 11, 9, 42, 20, 12, 45, 13, 7, 14, 48, 35, 7, 42, 3, 8, 11, 57, 65, 11, 15, 4, 10, 74, 3, 15, 41, 0)
s = 111: (0, 5, 5, 8, 18, 16, 9, 40, 15, 20, 42, 7, 6, 10, 99, 27, 4, 28, 3, 8, 9, 112, 75, 15, 14, 6, 6, 83, 3, 13, 35, 0)
s = 112: (0, 5, 4, 10, 21, 13, 8, 57, 31, 12, 99, 5, 5, 13, 62, 28, 7, 25, 4, 6, 16, 134, 58, 27, 10, 4, 6, 104, 3, 19, 25, 0)
s = 113: (0, 9, 4, 10, 10, 10, 6, 52, 23, 22, 80, 9, 7, 23, 52, 27, 6, 38, 6, 11, 13, 69, 83, 15, 16, 3, 10, 45, 2, 19, 18, 0)
s = 114: (0, 8, 3, 13, 22, 19, 7, 44, 19, 14, 54, 5, 6, 19, 84, 34, 6, 23, 3, 9, 16, 98, 63, 13, 11, 4, 10, 55, 2, 21, 30, 0)
s = 115: (0, 5, 3, 11, 21, 30, 6, 27, 40, 22, 59, 6, 9, 12, 59, 31, 6, 28, 4, 10, 16, 104, 76, 15, 12, 3, 6, 79, 2, 19, 43, 0)
s = 116: (0, 7, 2, 11, 8, 24, 11, 41, 14, 16, 55, 6, 6, 19, 79, 27, 7, 45, 5, 4, 16, 82, 68, 10, 11, 5, 9, 49, 2, 19, 31, 0)
s = 117: (0, 4, 3, 7, 11, 20, 10, 65, 16, 9, 105, 6, 4, 20, 129, 34, 6, 41, 3, 7, 9, 88, 53, 14, 13, 5, 11, 74, 3, 15, 20, 0)
s = 118: (0, 5, 4, 7, 16, 15, 9, 85, 20, 15, 83, 8, 5, 13, 93, 26, 8, 43, 2, 6, 14, 76, 102, 27, 11, 3, 5, 85, 2, 16, 20, 0)
s = 119: (0, 6, 3, 9, 14, 27, 9, 83, 25, 11, 81, 6, 5, 15, 53, 32, 7, 56, 4, 7, 15, 105, 54, 13, 11, 5, 8, 56, 3, 23, 33, 0)
s = 120: (0, 5, 3, 7, 11, 16, 6, 40, 15, 10, 64, 7, 9, 18, 45, 31, 5, 52, 4, 9, 8, 74, 87, 13, 15, 5, 10, 62, 3, 12, 42, 0)
s = 121: (0, 4, 3, 11, 10, 18, 11, 49, 20, 13, 69, 9, 7, 30, 78, 28, 8, 25, 3, 8, 11, 57, 64, 21, 19, 5, 11, 64, 2, 25, 33, 0)
s = 122: (0, 4, 4, 7, 14, 17, 7, 63, 33, 12, 53, 9, 7, 15, 59, 33, 9, 46, 3, 6, 17, 69, 52, 18, 15, 4, 12, 87, 2, 13, 32, 0)
s = 123: (0, 5, 2, 12, 19, 12, 11, 34, 18, 11, 46, 5, 4, 25, 115, 37, 8, 55, 4, 9, 11, 65, 47, 15, 15, 3, 13, 129, 2, 18, 25, 0)
s = 124: (0, 5, 5, 7, 23, 22, 11, 47, 24, 21, 93, 10, 7, 14, 92, 21, 5, 27, 5, 9, 22, 112, 85, 17, 19, 3, 10, 95, 2, 30, 30, 0)
s = 125: (0, 5, 3, 13, 12, 21, 13, 42, 18, 20, 75, 10, 5, 20, 70, 34, 6, 31, 3, 9, 18, 85, 92, 21, 16, 6, 12, 57, 2, 11, 24, 0)
s = 126: (0, 5, 3, 12, 10, 20, 12, 31, 21, 16, 88, 8, 6, 20, 94, 21, 10, 56, 3, 6, 19, 105, 46, 18, 9, 4, 10, 52, 3, 20, 33, 0)
s = 127: (0, 7, 3, 6, 15, 14, 6, 59, 34, 10, 77, 12, 6, 23, 111, 23, 8, 24, 3, 7, 10, 129, 67, 11, 8, 5, 6, 55, 2, 21, 46, 0)
s = 128: (0, 5, 3, 5, 15, 14, 7, 35, 25, 14, 93, 6, 10, 13, 45, 29, 5, 39, 5, 6, 24, 95, 78, 9, 11, 3, 9, 59, 2, 11, 28, 0)
s = 129: (0, 3, 3, 12, 13, 25, 10, 57, 30, 23, 56, 8, 7, 26, 113, 37, 10, 45, 3, 12, 13, 48, 71, 15, 9, 6, 14, 45, 3, 16, 35, 0)
s = 130: (0, 5, 3, 12, 10, 19, 8, 42, 22, 14, 104, 7, 7, 26, 82, 19, 5, 38, 4, 7, 12, 94, 94, 22, 9, 5, 5, 42, 2, 24, 44, 0)
s = 131: (0, 6, 2, 10, 15, 17, 6, 70, 31, 18, 85, 10, 4, 12, 53, 29, 6, 34, 5, 7, 19, 72, 68, 14, 15, 3, 9, 88, 2, 18, 20, 0)
s = 132: (0, 5, 4, 6, 10, 15, 6, 56, 18, 10, 81, 8, 5, 25, 73, 19, 11, 52, 2, 8, 22, 52, 88, 15, 12, 5, 6, 77, 2, 20, 32, 0)
s = 133: (0, 5, 4, 13, 23, 27, 6, 50, 20, 16, 75, 4, 5, 27, 43, 23, 5, 26, 3, 8, 21, 93, 84, 12, 8, 4, 6, 91, 2, 20, 20, 0)
s = 134: (0, 6, 5, 7, 23, 19, 14, 46, 22, 11, 92, 5, 4, 15, 83, 30, 6, 32, 3, 9, 15, 62, 64, 17, 9, 7, 7, 53, 2, 14, 33, 0)
s = 135: (0, 5, 5, 8, 12, 19, 6, 75, 14, 15, 90, 7, 5, 26, 89, 46, 6, 23, 4, 7, 22, 96, 34, 22, 9, 5, 11, 59, 3, 18, 28, 0)
s = 136: (0, 7, 3, 14, 16, 14, 8, 46, 39, 29, 62, 11, 7, 15, 69, 23, 6, 28, 4, 12, 15, 100, 52, 21, 9, 4, 7, 126, 3, 18, 21, 0)
s = 137: (0, 6, 3, 14, 8, 12, 8, 62, 32, 15, 80, 6, 4, 15, 53, 20, 4, 35, 4, 10, 12, 108, 93, 15, 16, 4, 13, 63, 2, 13, 36, 0)
s = 138: (0, 4, 4, 8, 13, 34, 7, 49, 13, 12, 108, 9, 7, 20, 59, 22, 7, 45, 3, 7, 14, 62, 46, 17, 9, 5, 9, 100, 4, 23, 39, 0)
s = 139: (0, 4, 3, 6, 9, 20, 9, 37, 25, 17, 115, 7, 5, 13, 61, 46, 10, 44, 2, 10, 10, 57, 66, 22, 9, 5, 11, 79, 2, 19, 24, 0)
s = 140: (0, 6, 2, 7, 18, 23, 10, 74, 16, 16, 68, 7, 6, 17, 49, 27, 9, 45, 4, 11, 15, 90, 42, 24, 12, 7, 11, 73, 2, 23, 22, 0)
s = 141: (0, 7, 4, 11, 15, 14, 10, 51, 36, 11, 65, 6, 7, 23, 52, 52, 7, 50, 3, 8, 14, 76, 76, 16, 12, 4, 8, 114, 2, 12, 35, 0)
s = 142: (0, 5, 6, 9, 9, 20, 6, 30, 16, 18, 68, 9, 5, 23, 56, 23, 9, 48, 6, 5, 16, 112, 56, 16, 11, 3, 8, 94, 4, 11, 21, 0)
s = 143: (0, 5, 5, 8, 25, 19, 6, 47, 16, 9, 40, 9, 5, 27, 61, 33, 10, 29, 4, 12, 19, 133, 58, 14, 12, 5, 7, 75, 3, 22, 23, 0)
s = 144: (0, 5, 3, 9, 17, 30, 9, 71, 28, 22, 76, 5, 5, 14, 56, 35, 7, 38, 2, 7, 10, 100, 52, 18, 18, 4, 9, 65, 4, 16, 28, 0)
s = 145: (0, 6, 3, 9, 23, 19, 9, 33, 13, 15, 55, 7, 4, 15, 60, 34, 6, 36, 3, 7, 18, 117, 83, 12, 17, 5, 9, 45, 2, 23, 19, 0)
s = 146: (0, 5, 2, 10, 11, 13, 12, 49, 31, 18, 51, 6, 9, 20, 83, 32, 9, 34, 3, 6, 15, 113, 70, 15, 7, 5, 10, 82, 2, 21, 33, 0)
s = 147: (0, 4, 4, 8, 13, 14, 8, 45, 22, 17, 81, 6, 7, 22, 96, 24, 8, 41, 4, 9, 11, 82, 100, 27, 10, 4, 13, 75, 3, 13, 27, 0)
s = 148: (0, 5, 3, 8, 18, 13, 8, 43, 15, 16, 69, 6, 5, 17, 73, 25, 5, 42, 4, 5, 11, 76, 67, 13, 12, 3, 11, 53, 4, 11, 34, 0)
s = 149: (0, 6, 3, 12, 17, 12, 11, 60, 17, 18, 51, 4, 6, 12, 60, 29, 8, 23, 3, 8, 11, 97, 59, 16, 11, 4, 13, 58, 3, 16, 27, 0)
s = 150: (0, 7, 3, 12, 12, 19, 7, 51, 18, 11, 99, 8, 7, 23, 83, 34, 8, 42, 3, 8, 11, 160, 47, 20, 15, 4, 6, 107, 2, 10, 17, 0)
s = 151: (0, 8, 6, 12, 17, 22, 9, 38, 18, 15, 115, 6, 7, 17, 43, 25, 7, 35, 3, 9, 14, 95, 47, 17, 9, 5, 13, 64, 2, 14, 40, 0)
s = 152: (0, 4, 4, 7, 9, 18, 9, 38, 16, 12, 47, 7, 8, 30, 41, 28, 7, 28, 5, 8, 15, 90, 79, 16, 9, 3, 7, 51, 3, 17, 20, 0)
s = 153: (0, 5, 2, 7, 13, 20, 10, 33, 31, 13, 87, 6, 10, 20, 51, 29, 7, 62, 3, 8, 15, 123, 44, 13, 13, 7, 12, 103, 3, 11, 20, 0)
s = 154: (0, 6, 3, 9, 21, 19, 5, 41, 47, 12, 50, 10, 5, 31, 60, 38, 4, 36, 5, 8, 17, 101, 55, 15, 14, 6, 7, 45, 2, 13, 30, 0)
s = 155: (0, 7, 3, 12, 9, 22, 9, 43, 32, 14, 45, 7, 7, 15, 99, 33, 7, 55, 4, 8, 12, 109, 97, 13, 10, 4, 11, 83, 2, 20, 15, 0)
s = 156: (0, 5, 4, 7, 8, 24, 7, 44, 19, 17, 62, 9, 5, 18, 60, 35, 6, 37, 2, 8, 11, 56, 89, 17, 9, 5, 10, 81, 2, 10, 17, 0)
s = 157: (0, 4, 4, 13, 13, 21, 13, 41, 37, 19, 116, 6, 5, 16, 56, 36, 5, 58, 5, 9, 14, 81, 104, 14, 16, 9, 16, 51, 2, 23, 34, 0)
s = 158: (0, 5, 6, 11, 11, 29, 6, 49, 26, 13, 45, 8, 4, 13, 48, 43, 8, 30, 3, 7, 11, 69, 75, 12, 7, 3, 9, 59, 2, 15, 29, 0)
s = 159: (0, 4, 2, 5, 13, 13, 7, 58, 28, 12, 84, 8, 7, 17, 70, 26, 6, 36, 5, 8, 15, 110, 67, 13, 12, 5, 8, 96, 2, 22, 35, 0)
s = 160: (0, 6, 4, 6, 14, 20, 9, 34, 16, 17, 63, 9, 8, 14, 55, 33, 10, 50, 3, 8, 14, 110, 58, 18, 10, 5, 9, 92, 3, 11, 25, 0)
s = 161: (0, 4, 3, 9, 13, 27, 12, 54, 29, 20, 64, 10, 5, 15, 56, 35, 5, 34, 3, 7, 9, 68, 81, 18, 8, 4, 8, 107, 3, 15, 21, 0)
s = 162: (0, 5, 3, 8, 16, 24, 8, 47, 26, 16, 86, 6, 6, 11, 90, 29, 4, 49, 4, 6, 13, 93, 51, 18, 12, 4, 7, 69, 3, 19, 22, 0)
s = 163: (0, 7, 4, 8, 13, 26, 9, 72, 21, 12, 58, 8, 5, 16, 120, 30, 4, 31, 4, 6, 18, 111, 74, 24, 11, 5, 7, 66, 3, 12, 28, 0)
s = 164: (0, 9, 4, 6, 12, 23, 7, 55, 27, 9, 59, 9, 7, 21, 92, 26, 7, 45, 5, 6, 13, 111, 71, 12, 10, 4, 8, 99, 4, 13, 32, 0)
s = 165: (0, 8, 4, 8, 23, 14, 13, 60, 29, 17, 62, 10, 7, 27, 93, 19, 5, 52, 3, 11, 10, 82, 50, 23, 12, 6, 12, 75, 2, 21, 24, 0)
s = 166: (0, 4, 5, 7, 9, 19, 9, 39, 33, 10, 81, 6, 5, 17, 88, 20, 7, 33, 4, 9, 15, 83, 45, 21, 9, 3, 8, 57, 2, 15, 26, 0)
s = 167: (0, 5, 4, 9, 13, 21, 8, 42, 37, 18, 60, 6, 5, 14, 92, 23, 5, 26, 2, 10, 10, 113, 43, 16, 12, 3, 10, 59, 2, 14, 36, 0)
s = 168: (0, 7, 3, 8, 17, 13, 7, 58, 39, 13, 63, 8, 7, 15, 41, 34, 8, 54, 3, 9, 25, 74, 82, 17, 11, 3, 9, 44, 4, 15, 46, 0)
s = 169: (0, 6, 3, 6, 14, 12, 9, 37, 23, 16, 55, 6, 8, 12, 72, 40, 6, 25, 4, 8, 16, 161, 38, 12, 17, 5, 16, 86, 2, 25, 45, 0)
s = 170: (0, 6, 4, 9, 11, 26, 9, 50, 33, 16, 79, 8, 7, 22, 61, 26, 5, 54, 4, 5, 11, 89, 98, 13, 10, 7, 12, 92, 2, 13, 27, 0)
s = 171: (0, 6, 5, 7, 16, 21, 9, 41, 27, 10, 48, 5, 10, 14, 44, 25, 7, 32, 2, 7, 12, 75, 85, 16, 14, 5, 10, 69, 2, 13, 30, 0)
s = 172: (0, 9, 4, 8, 14, 13, 13, 43, 21, 12, 55, 8, 4, 25, 53, 32, 4, 32, 5, 7, 20, 131, 39, 19, 22, 7, 7, 92, 2, 12, 26, 0)
s = 173: (0, 5, 4, 12, 12, 16, 8, 47, 17, 9, 69, 9, 8, 13, 79, 20, 4, 58, 3, 9, 12, 47, 67, 22, 9, 4, 14, 54, 3, 16, 21, 0)
s = 174: (0, 4, 3, 10, 26, 11, 6, 58, 15, 11, 103, 7, 7, 20, 52, 29, 9, 62, 4, 5, 14, 110, 42, 11, 8, 4, 9, 66, 3, 18, 35, 0)
s = 175: (0, 6, 3, 11, 19, 25, 8, 78, 25, 13, 55, 5, 5, 18, 129, 32, 8, 40, 2, 7, 11, 96, 55, 24, 12, 4, 8, 52, 3, 12, 36, 0)
s = 176: (0, 4, 3, 8, 16, 26, 10, 35, 20, 11, 51, 5, 10, 17, 84, 37, 12, 49, 3, 6, 9, 67, 49, 18, 14, 4, 7, 76, 2, 17, 25, 0)
s = 177: (0, 4, 3, 8, 13, 18, 12, 43, 14, 18, 41, 7, 5, 18, 99, 26, 5, 55, 4, 5, 10, 92, 101, 16, 8, 4, 7, 76, 4, 16, 30, 0)
s = 178: (0, 8, 3, 6, 16, 19, 9, 45, 23, 18, 98, 8, 5, 15, 42, 28, 6, 37, 2, 6, 22, 95, 42, 20, 17, 5, 8, 73, 3, 16, 40, 0)
s = 179: (0, 9, 3, 8, 13, 14, 15, 38, 19, 20, 63, 8, 9, 18, 56, 35, 5, 48, 4, 5, 22, 61, 60, 16, 9, 8, 6, 52, 3, 20, 19, 0)
s = 180: (0, 6, 5, 8, 11, 22, 9, 54, 30, 16, 58, 11, 6, 19, 72, 25, 5, 34, 2, 5, 10, 83, 51, 18, 17, 4, 8, 56, 3, 24, 49, 0)
s = 181: (0, 6, 3, 8, 12, 17, 8, 36, 21, 20, 44, 9, 6, 11, 82, 51, 5, 54, 3, 7, 10, 96, 56, 13, 13, 6, 6, 82, 2, 13, 20, 0)
s = 182: (0, 8, 3, 8, 14, 23, 8, 68, 17, 21, 45, 10, 7, 12, 91, 37, 5, 33, 4, 13, 20, 82, 93, 14, 11, 3, 8, 53, 2, 12, 43, 0)
s = 183: (0, 5, 3, 6, 13, 18, 11, 38, 28, 12, 86, 7, 5, 13, 79, 22, 10, 29, 5, 9, 12, 90, 61, 24, 15, 6, 9, 58, 3, 12, 19, 0)
s = 184: (0, 8, 2, 7, 8, 25, 9, 59, 20, 10, 68, 6, 9, 18, 85, 30, 9, 44, 3, 10, 14, 81, 40, 11, 13, 4, 6, 85, 2, 15, 20, 0)
s = 185: (0, 5, 3, 10, 13, 17, 13, 29, 26, 16, 54, 7, 4, 16, 86, 25, 8, 36, 3, 10, 12, 83, 60, 9, 10, 3, 7, 80, 3, 10, 29, 0)
s = 186: (0, 6, 3, 7, 13, 12, 7, 55, 18, 13, 63, 13, 10, 24, 64, 29, 10, 28, 3, 8, 14, 91, 110, 14, 9, 3, 10, 72, 2, 10, 46, 0)
s = 187: (0, 5, 3, 6, 8, 25, 12, 34, 17, 11, 73, 7, 7, 14, 60, 46, 9, 36, 2, 5, 12, 96, 47, 18, 8, 5, 6, 67, 3, 14, 28, 0)
s = 188: (0, 6, 4, 9, 17, 16, 10, 50, 20, 17, 64, 7, 7, 14, 48, 21, 4, 45, 3, 9, 19, 119, 65, 15, 14, 4, 12, 67, 2, 15, 33, 0)
s = 189: (0, 5, 5, 7, 13, 15, 10, 44, 33, 26, 107, 7, 6, 26, 77, 20, 7, 41, 6, 10, 9, 87, 46, 25, 9, 5, 11, 109, 2, 14, 38, 0)
s = 190: (0, 8, 3, 14, 11, 22, 6, 36, 28, 10, 77, 6, 5, 20, 82, 55, 7, 44, 3, 6, 16, 64, 64, 16, 16, 4, 13, 69, 4, 12, 37, 0)
s = 191: (0, 4, 4, 14, 9, 22, 11, 48, 34, 13, 55, 8, 4, 18, 55, 23, 9, 45, 3, 8, 16, 125, 84, 24, 15, 6, 8, 50, 2, 13, 35, 0)
s = 192: (0, 5, 4, 9, 9, 12, 8, 34, 19, 15, 67, 13, 6, 18, 74, 19, 7, 28, 3, 12, 18, 129, 68, 17, 14, 3, 6, 46, 3, 21, 41, 0)
s = 193: (0, 4, 3, 7, 18, 18, 7, 80, 29, 19, 73, 9, 6, 16, 92, 28, 6, 26, 4, 6, 15, 138, 93, 13, 14, 4, 8, 56, 2, 21, 23, 0)
s = 194: (0, 6, 2, 6, 20, 14, 10, 40, 16, 19, 95, 6, 9, 13, 90, 32, 5, 28, 3, 6, 11, 120, 68, 22, 14, 5, 14, 54, 2, 16, 31, 0)
s = 195: (0, 9, 2, 11, 9, 16, 7, 29, 17, 24, 63, 9, 6, 12, 51, 23, 4, 44, 4, 8, 10, 97, 49, 15, 14, 5, 5, 45, 2, 20, 29, 0)
s = 196: (0, 4, 3, 7, 21, 23, 7, 40, 28, 11, 60, 14, 4, 20, 79, 44, 9, 36, 4, 6, 19, 92, 61, 20, 9, 5, 8, 123, 4, 16, 32, 0)
s = 197: (0, 6, 5, 9, 18, 15, 8, 40, 23, 16, 57, 7, 4, 19, 65, 36, 7, 30, 3, 5, 21, 122, 65, 9, 11, 3, 7, 75, 2, 13, 23, 0)
s = 198: (0, 7, 4, 10, 19, 17, 12, 37, 34, 13, 39, 10, 4, 14, 55, 22, 9, 50, 3, 9, 20, 66, 49, 17, 10, 4, 6, 86, 3, 13, 30, 0)
s = 199: (0, 5, 4, 9, 11, 14, 7, 70, 24, 17, 59, 6, 7, 20, 55, 41, 6, 31, 3, 7, 12, 120, 68, 23, 8, 3, 10, 81, 2, 17, 31, 0)
s = 200: (0, 6, 4, 9, 16, 22, 10, 41, 17, 12, 79, 9, 7, 15, 46, 30, 7, 47, 3, 9, 21, 106, 45, 20, 8, 5, 9, 55, 4, 15, 36, 0)
************************************************************************
ES/LS-VALUES:
jobnr.   ES(i)    LS(i)
------------------------------------------------------------------------
  0        0        0
  1        0       101
  2        0       74
  3        0       58
  4        2       78
  5        2       76
  6        2       61
  7        9       97
  8        9       69
  9       16       92
 10       24       85
 11        9       105
 12       11       133
 13       18       118
 14       11       115
 15       30       107
 16       37       99
 17       14       89
 18       24       124
 19        2       109
 20       32       107
 21       44       120
 22        2       112
 23       41       103
 24       48       126
 25       56       134
 26       48       111
 27       49       113
 28       60       139
 29       60       137
 30       63       128
 31       75       141
************************************************************************
BIG-M-VALUES:
M1 = 36, M2 = 162
************************************************************************
